\* Problem: steiner *\

Minimize
 obj: + 2.2360680103302 x1i6 + 3.60555124282837 x1i7 + 5 x1i8
 + 2.2360680103302 x2i6 + 3.60555124282837 x2i7 + 4.12310552597046 x2i8
 + 3.60555124282837 x3i6 + 3 x3i7 + 2.2360680103302 x3i8
 + 5.0990195274353 x4i6 + 3.16227769851685 x4i7 + 2 x4i8
 + 3.60555124282837 x5i6 + 2.2360680103302 x5i7 + 3 x5i8 + 2 x6i7
 + 3.16227769851685 x6i8 + 1.41421353816986 x7i8

Subject To
 p1: 0 x1i6 = 1
 p2: 0 x1i6 = 1
 p3: 0 x1i6 = 1
 p4: 0 x1i6 = 1
 p5: 0 x1i6 = 1
 q6: 0 x1i6 = 3
 q7: 0 x1i6 = 3
 q8: 0 x1i6 = 3

Bounds
 0 <= x1i6 <= 1
 0 <= x1i7 <= 1
 0 <= x1i8 <= 1
 0 <= x2i6 <= 1
 0 <= x2i7 <= 1
 0 <= x2i8 <= 1
 0 <= x3i6 <= 1
 0 <= x3i7 <= 1
 0 <= x3i8 <= 1
 0 <= x4i6 <= 1
 0 <= x4i7 <= 1
 0 <= x4i8 <= 1
 0 <= x5i6 <= 1
 0 <= x5i7 <= 1
 0 <= x5i8 <= 1
 0 <= x6i7 <= 1
 0 <= x6i8 <= 1
 0 <= x7i8 <= 1

Generals
 x1i6
 x1i7
 x1i8
 x2i6
 x2i7
 x2i8
 x3i6
 x3i7
 x3i8
 x4i6
 x4i7
 x4i8
 x5i6
 x5i7
 x5i8
 x6i7
 x6i8
 x7i8

End
